 Run started: Wed, 16 Jan 2019 11:25:30 +0000

 Atomic calculation performed for Li: 1s2 2s1

 Converged in 46 iterations to an ae energy of -199.592 eV

 Pseudo atomic calculation performed for Li 1s2 2s1

 Converged in 13 iterations to a total energy of -197.4282 eV

 Calculation parallelised over 30 processes.
 Data is distributed by k-point(30-way)

 ************************************ Title ************************************

 ***************************** General Parameters ******************************

 output verbosity                               : normal  (1)
 write checkpoint data to                       : 1.7_1.7.check
 type of calculation                            : single point energy
 stress calculation                             : off
 density difference calculation                 : off
 electron localisation func (ELF) calculation   : off
 Hirshfeld analysis                             : off
 unlimited duration calculation
 timing information                             : on
 write extra ouput files                        : off
 write final potential to formatted file        : off
 write final density to formatted file          : off
 write BibTeX reference list                    : off
 write OTFG pseudopotential files               : off
 write electrostatic potential file             : off
 write bands file                               : off
 checkpoint writing                             : off

 output         length unit                     : A
 output           mass unit                     : amu
 output           time unit                     : ps
 output         charge unit                     : e
 output           spin unit                     : hbar/2
 output         energy unit                     : eV
 output          force unit                     : eV/A
 output       velocity unit                     : A/ps
 output       pressure unit                     : GPa
 output     inv_length unit                     : 1/A
 output      frequency unit                     : cm-1
 output force constant unit                     : eV/A**2
 output         volume unit                     : A**3
 output   IR intensity unit                     : (D/A)**2/amu
 output         dipole unit                     : D
 output         efield unit                     : eV/A/e
 output        entropy unit                     : J/mol/K

 wavefunctions paging                           : none
 random number generator seed                   : randomised (112530268)
 data distribution                              : optimal for this architecture

 *********************** Exchange-Correlation Parameters ***********************

 using functional                               : Local Density Approximation
 relativistic treatment                         : Koelling-Harmon
 DFT+D: Semi-empirical dispersion correction    : off

 ************************* Pseudopotential Parameters **************************

 pseudopotential representation                 : reciprocal space
 <beta|phi> representation                      : reciprocal space
 spin-orbit coupling                            : off

 **************************** Basis Set Parameters *****************************

 plane wave basis set cut-off                   :   500.0000   eV
 size of standard grid                          :     1.7500
 size of   fine   gmax                          :    20.0476   1/A
 finite basis set correction                    : none

 **************************** Electronic Parameters ****************************

 number of  electrons                           :  6.000
 net charge of system                           :  0.000
 treating system as non-spin-polarized
 number of bands                                :         13

 ********************* Electronic Minimization Parameters **********************

 Method: Treating system as metallic with density mixing treatment of electrons,
         and number of  SD  steps               :          1
         and number of  CG  steps               :          4

 total energy / atom convergence tol.           : 0.1000E-04   eV
 eigen-energy convergence tolerance             : 0.1000E-05   eV
 max force / atom convergence tol.              : ignored
 convergence tolerance window                   :          3   cycles
 max. number of SCF cycles                      :         30
 number of fixed-spin iterations                :         10
 smearing scheme                                : Gaussian
 smearing width                                 : 0.2000       eV
 Fermi energy convergence tolerance             : 0.2721E-13   eV
 periodic dipole correction                     : NONE

 ************************** Density Mixing Parameters **************************

 density-mixing scheme                          : Broyden
 max. length of mixing history                  :         20
 charge density mixing amplitude                : 0.8000
 cut-off energy for mixing                      :  500.0       eV

 *********************** Population Analysis Parameters ************************

 Population analysis with cutoff                :  3.000       A
 Population analysis output                     : summary and pdos components

                                      Unit Cell
        Real Lattice(A)                      Reciprocal Lattice(1/A)
     2.4403408     0.0000000     0.0000000        2.574716320   0.000000000   0.000000000
     0.0000000     4.1485794     0.0000000        0.000000000   1.514539012   0.000000000
     0.0000000     0.0000000     4.1485794        0.000000000   0.000000000   1.514539012

                       Lattice parameters(A)       Cell Angles
                    a =      2.440341          alpha =   90.000000
                    b =      4.148579          beta  =   90.000000
                    c =      4.148579          gamma =   90.000000

                       Current cell volume =            42.000000       A**3
                                   density =             0.330524   AMU/A**3
                                           =             0.548848     g/cm^3

                                     Cell Contents
                         Total number of ions in cell =    2
                      Total number of species in cell =    1
                        Max number of any one species =    2

            x  Element    Atom        Fractional coordinates of atoms  x
            x            Number           u          v          w      x
            x  Li           1         0.000000   0.000000   0.000000   x
            x  Li           2         0.500000   0.500000   0.500000   x

                         No user defined ionic velocities

                                   Details of Species

                               Mass of species in AMU
                                    Li    6.9410000

                          Electric Quadrupole Moment (Barn)
                                    Li   -0.0401000 Isotope  7

                          Files used for pseudopotentials:
                                    Li 1|1.0|14|16|18|10U:20(qc=7)

                              k-Points For BZ Sampling
                       MP grid size for SCF calculation is  9  5  5
                            with an offset of   0.000  0.000  0.000
                       Number of kpoints used =            30

                               Symmetry and Constraints

                      Cell is a supercell containing 2 primitive cells
                      Maximum deviation from symmetry = 0.141001E-14     ANG

                      Number of symmetry operations   =          32
                      Number of ionic constraints     =           3
                      Point group of crystal =    15: D4h, 4/mmm, 4/m 2/m 2/m
                      Space group of crystal =   139: I4/mmm, -I 4 2

             Set iprint > 1 for details on symmetry rotations/translations

                         Centre of mass is constrained
             Set iprint > 1 for details of linear ionic constraints

                         Number of cell constraints= 4
                         Cell constraints are:  1 2 2 0 0 0

                         External pressure/stress (GPa)
                          0.00000   0.00000   0.00000
                                    0.00000   0.00000
                                              0.00000

Final energy, E             =  -398.7835692380     eV
Final free energy (E-TS)    =  -398.8003800740     eV
(energies not corrected for finite basis set)

NB est. 0K energy (E-0.5TS)      =  -398.7919746560     eV

 ******************** Symmetrised Forces ********************
 *               Cartesian components (eV/A)                *
 *                         x            y            z      *
 * Li              1     -0.00000      0.00000     -0.00000 *
 * Li              2      0.00000     -0.00000      0.00000 *

 Pseudo atomic calculation performed for Li 1s2 2s1

 Converged in 13 iterations to a total energy of -197.4282 eV

Charge spilling parameter for spin component 1 = 0.07%

            Orbital Populations
     Ion    Atom   Orbital             Charge
     Li     1      S                    2.003
     Li     1      S                   -0.072
     Li     1      Px                   0.431
     Li     1      Py                   0.318
     Li     1      Pz                   0.325
     Li     2      S                    2.003
     Li     2      S                   -0.082
     Li     2      Px                   0.438
     Li     2      Py                   0.314
     Li     2      Pz                   0.321
                           Total:       6.000

     Atomic Populations (Mulliken)
Species          Ion     s      p      d      f     Total  Charge (e)
  Li              1     1.93   1.07   0.00   0.00   3.00     0.00
  Li              2     1.93   1.07   0.00   0.00   3.00     0.00

                 Bond                   Population      Length (A)

Initialisation time =      0.68 s
Calculation time    =      0.44 s
Finalisation time   =      0.00 s
Total time          =      1.12 s

Overall parallel efficiency rating: Terrible (34%)

Data was distributed by:-
k-point (30-way); efficiency rating: Poor (35%)

Parallel notes:
1) Calculation only took 1.1 s, so efficiency estimates may be inaccurate.