 Run started: Wed, 16 Jan 2019 14:29:32 +0000

 Atomic calculation performed for Fe: 1s2 2s2 2p6 3s2 3p6 3d6 4s2

 Converged in 100 iterations to an ae energy of -34563.484 eV

 Pseudo atomic calculation performed for Fe 3d6 4s2

 Converged in 30 iterations to a total energy of -848.3436 eV

 Calculation parallelised over 32 processes.
 Data is distributed by G-vector(2-way) and k-point(16-way)

 ************************************ Title ************************************

 ***************************** General Parameters ******************************

 output verbosity                               : normal  (1)
 write checkpoint data to                       : 1.25_0.95.check
 type of calculation                            : single point energy
 stress calculation                             : off
 density difference calculation                 : off
 electron localisation func (ELF) calculation   : off
 Hirshfeld analysis                             : off
 unlimited duration calculation
 timing information                             : on
 write extra ouput files                        : off
 write final potential to formatted file        : off
 write final density to formatted file          : off
 write BibTeX reference list                    : off
 write OTFG pseudopotential files               : off
 write electrostatic potential file             : off
 write bands file                               : off
 checkpoint writing                             : off

 output         length unit                     : A
 output           mass unit                     : amu
 output           time unit                     : ps
 output         charge unit                     : e
 output           spin unit                     : hbar/2
 output         energy unit                     : eV
 output          force unit                     : eV/A
 output       velocity unit                     : A/ps
 output       pressure unit                     : GPa
 output     inv_length unit                     : 1/A
 output      frequency unit                     : cm-1
 output force constant unit                     : eV/A**2
 output         volume unit                     : A**3
 output   IR intensity unit                     : (D/A)**2/amu
 output         dipole unit                     : D
 output         efield unit                     : eV/A/e
 output        entropy unit                     : J/mol/K

 wavefunctions paging                           : none
 random number generator seed                   : randomised (142932234)
 data distribution                              : optimal for this architecture

 *********************** Exchange-Correlation Parameters ***********************

 using functional                               : Local Density Approximation
 relativistic treatment                         : Koelling-Harmon
 DFT+D: Semi-empirical dispersion correction    : off

 ************************* Pseudopotential Parameters **************************

 pseudopotential representation                 : reciprocal space
 <beta|phi> representation                      : reciprocal space
 spin-orbit coupling                            : off

 **************************** Basis Set Parameters *****************************

 plane wave basis set cut-off                   :   500.0000   eV
 size of standard grid                          :     1.7500
 size of   fine   gmax                          :    20.0476   1/A
 finite basis set correction                    : none

 **************************** Electronic Parameters ****************************

 number of  electrons                           :  16.00
 net charge of system                           :  0.000
 treating system as non-spin-polarized
 number of bands                                :         18

 ********************* Electronic Minimization Parameters **********************

 Method: Treating system as metallic with density mixing treatment of electrons,
         and number of  SD  steps               :          1
         and number of  CG  steps               :          4

 total energy / atom convergence tol.           : 0.1000E-04   eV
 eigen-energy convergence tolerance             : 0.1000E-05   eV
 max force / atom convergence tol.              : ignored
 convergence tolerance window                   :          3   cycles
 max. number of SCF cycles                      :         30
 number of fixed-spin iterations                :         10
 smearing scheme                                : Gaussian
 smearing width                                 : 0.2000       eV
 Fermi energy convergence tolerance             : 0.2721E-13   eV
 periodic dipole correction                     : NONE

 ************************** Density Mixing Parameters **************************

 density-mixing scheme                          : Broyden
 max. length of mixing history                  :         20
 charge density mixing amplitude                : 0.8000
 cut-off energy for mixing                      :  500.0       eV

 *********************** Population Analysis Parameters ************************

 Population analysis with cutoff                :  3.000       A
 Population analysis output                     : summary and pdos components

                                      Unit Cell
        Real Lattice(A)                      Reciprocal Lattice(1/A)
     2.5484570     0.0000000     0.0000000        2.465486082   0.000000000   0.000000000
     0.0000000     3.1855713     0.0000000        0.000000000   1.972388866   0.000000000
     0.0000000     0.0000000     2.4210342        0.000000000   0.000000000   2.595248508

                       Lattice parameters(A)       Cell Angles
                    a =      2.548457          alpha =   90.000000
                    b =      3.185571          beta  =   90.000000
                    c =      2.421034          gamma =   90.000000

                       Current cell volume =            19.654661       A**3
                                   density =             5.682622   AMU/A**3
                                           =             9.436215     g/cm^3

                                     Cell Contents
                         Total number of ions in cell =    2
                      Total number of species in cell =    1
                        Max number of any one species =    2

            x  Element    Atom        Fractional coordinates of atoms  x
            x            Number           u          v          w      x
            x  Fe           1         0.000000   0.000000   0.000000   x
            x  Fe           2         0.500000   0.500000   0.500000   x

                         No user defined ionic velocities

                                   Details of Species

                               Mass of species in AMU
                                    Fe   55.8450000

                          Electric Quadrupole Moment (Barn)
                                    Fe    0.1600000 Isotope 57

                          Files used for pseudopotentials:
                                    Fe 3|2.4|2.4|1.0|8|9|10|40:41:32U2U2(qc=5.5)

                              k-Points For BZ Sampling
                       MP grid size for SCF calculation is  8  7  9
                            with an offset of   0.000  0.000  0.000
                       Number of kpoints used =            80

                               Symmetry and Constraints

                      Cell is a supercell containing 2 primitive cells
                      Maximum deviation from symmetry = 0.537578E-15     ANG

                      Number of symmetry operations   =          16
                      Number of ionic constraints     =           3
                      Point group of crystal =     8: D2h, mmm, 2/m 2/m 2/m
                      Space group of crystal =    71: Immm, -I 2 2

             Set iprint > 1 for details on symmetry rotations/translations

                         Centre of mass is constrained
             Set iprint > 1 for details of linear ionic constraints

                         Number of cell constraints= 3
                         Cell constraints are:  1 2 3 0 0 0

                         External pressure/stress (GPa)
                          0.00000   0.00000   0.00000
                                    0.00000   0.00000
                                              0.00000

Final energy, E             =  -1717.160365735     eV
Final free energy (E-TS)    =  -1717.224224841     eV
(energies not corrected for finite basis set)

NB est. 0K energy (E-0.5TS)      =  -1717.192295288     eV

 ******************** Symmetrised Forces ********************
 *               Cartesian components (eV/A)                *
 *                         x            y            z      *
 * Fe              1      0.00000      0.00000      0.00000 *
 * Fe              2      0.00000      0.00000      0.00000 *

 Pseudo atomic calculation performed for Fe 3d6 4s2

 Converged in 30 iterations to a total energy of -848.3436 eV

Charge spilling parameter for spin component 1 = 0.20%

            Orbital Populations
     Ion    Atom   Orbital             Charge
     Fe     1      Dzz                  1.311
     Fe     1      Dzy                  1.354
     Fe     1      Dzx                  1.388
     Fe     1      Dxx-yy               1.315
     Fe     1      Dxy                  1.357
     Fe     1      S                    0.903
     Fe     1      Px                   0.178
     Fe     1      Py                   0.105
     Fe     1      Pz                   0.091
     Fe     2      Dzz                  1.311
     Fe     2      Dzy                  1.354
     Fe     2      Dzx                  1.388
     Fe     2      Dxx-yy               1.315
     Fe     2      Dxy                  1.357
     Fe     2      S                    0.903
     Fe     2      Px                   0.178
     Fe     2      Py                   0.105
     Fe     2      Pz                   0.091
                           Total:      16.000

     Atomic Populations (Mulliken)
Species          Ion     s      p      d      f     Total  Charge (e)
  Fe              1     0.90   0.37   6.72   0.00   8.00     0.00
  Fe              2     0.90   0.37   6.72   0.00   8.00     0.00

                 Bond                   Population      Length (A)
              Fe 1 -- Fe 2                  -0.29        2.37191

Initialisation time =      4.63 s
Calculation time    =      2.42 s
Finalisation time   =      0.00 s
Total time          =      7.06 s

Overall parallel efficiency rating: Terrible (28%)

Data was distributed by:-
G-vector (2-way); efficiency rating: Satisfactory (60%)
k-point (16-way); efficiency rating: Terrible (33%)

Parallel notes:
1) Calculation only took 7.1 s, so efficiency estimates may be inaccurate.